(set-logic QF_AUFBV)
(declare-fun v1 () (_ BitVec 1))
(declare-fun bvlambda_1_ () (_ BitVec 1))
(declare-fun bvlambda_2_ () (_ BitVec 2))
(declare-fun bvlambda_3_ () (_ BitVec 1))
(declare-fun bvlambda_4_ () (_ BitVec 1))
(declare-fun bvlambda_5_ () (_ BitVec 2))
(declare-fun bvlambda_6_ () (_ BitVec 2))
(declare-fun bvlambda_7_ () (_ BitVec 5))
(declare-fun bvlambda_8_ () (_ BitVec 1))
(declare-fun bvlambda_9_ () (_ BitVec 1))
(declare-fun bvlambda_10_ () (_ BitVec 6))
(declare-fun bvlambda_13_ () (_ BitVec 1))
(declare-fun bvlambda_14_ () (_ BitVec 1))
(declare-fun bvlambda_15_ () (_ BitVec 1))
(declare-fun bvlambda_16_ () (_ BitVec 1))
(declare-fun bvlambda_17_ () (_ BitVec 1))
(declare-fun bvlambda_18_ () (_ BitVec 1))
(declare-fun bvlambda_19_ () (_ BitVec 2))
(declare-fun bvlambda_20_ () (_ BitVec 1))
(declare-fun bvlambda_21_ () (_ BitVec 1))
(declare-fun bvlambda_22_ () (_ BitVec 2))
(declare-fun bvlambda_23_ () (_ BitVec 2))
(declare-fun bvlambda_24_ () (_ BitVec 5))
(declare-fun bvlambda_25_ () (_ BitVec 1))
(declare-fun a76 () (Array (_ BitVec 10) (_ BitVec 8)))
(declare-fun a77 () (Array (_ BitVec 1) (_ BitVec 2)))
(assert
(let (($e1 (_ bv0 1)))
(let (($e2 (_ bv13664 14)))
(let (($e3 (_ bv0 5)))
(let (($e4 (_ bv5814 13)))
(let (($e5 (_ bv25692 16)))
(let (($e6 (_ bv3526 12)))
(let (($e7 (_ bv29360 15)))
(let (($e8 (_ bv0 13)))
(let (($e9 (_ bv32766 15)))
(let (($e10 (_ bv3408 15)))
(let (($e11 (_ bv0 15)))
(let (($e12 (_ bv2378 15)))
(let (($e13 (_ bv30390 15)))
(let (($e14 (_ bv1242 14)))
(let (($e15 (_ bv0 12)))
(let (($e16 (_ bv730 15)))
(let (($e17 (_ bv0 9)))
(let (($e18 (_ bv0 3)))
(let (($e19 (_ bv64292 16)))
(let (($e20 (_ bv54 8)))
(let (($e21 (_ bv106 8)))
(let (($e22 (_ bv2 2)))
(let (($e23 (_ bv0 2)))
(let (($e24 (_ bv0 10)))
(let (($e25 (_ bv0 7)))
(let (($e26 (_ bv164 10)))
(let (($e27 (_ bv142 8)))
(let (($e28 (_ bv684 10)))
(let (($e29 (_ bv0 8)))
(let (($e30 (_ bv0 6)))
(let (($e31 (_ bv284 9)))
(let (($e32 (_ bv796 13)))
(let (($e33 (_ bv0 11)))
(let (($e34 (_ bv8190 13)))
(let (($e35 (_ bv57344 16)))
(let (($e36 (_ bv65534 16)))
(let (($e37 (_ bv0 14)))
(let (($e38 (_ bv570 12)))
(let (($e39 (_ bv0 4)))
(let (($e40 (_ bv8212 16)))
(let (($e41 (_ bv31524 15)))
(let (($e42 (_ bv24576 15)))
(let (($e43 (_ bv4094 12)))
(let (($e44 (_ bv18408 15)))
(let (($e45 (_ bv730 14)))
(let (($e46 (_ bv2 3)))
(let (($e47 (_ bv576 15)))
(let (($e48 (_ bv5814 14)))
(let (($e49 (_ bv16352 14)))
(let (($e50 (_ bv32764 15)))
(let (($e51 (_ bv10 5)))
(let (($e78 (concat bvlambda_19_ bvlambda_20_)))
(let (($e79 (concat $e78 bvlambda_21_)))
(let (($e80 (concat $e79 bvlambda_22_)))
(let (($e81 (concat $e80 bvlambda_23_)))
(let (($e82 (concat $e81 bvlambda_24_)))
(let (($e83 (concat $e82 bvlambda_25_)))
(let (($e84 (concat $e18 v1)))
(let (($e85 (bvlshr (bvnot $e19)  ((_ zero_extend 12) $e84))))
(let (($e86 ((_ extract 9 0) $e85)))
(let (($e87 (concat bvlambda_5_ bvlambda_6_)))
(let (($e88 (concat $e87 bvlambda_7_)))
(let (($e89 (concat $e88 bvlambda_8_)))
(let (($e90 (concat bvlambda_4_ bvlambda_5_)))
(let (($e91 (concat $e90 bvlambda_6_)))
(let (($e92 (concat $e91 bvlambda_7_)))
(let (($e93 (store a76 $e92 (bvnot $e20))))
(let (($e94 (store $e93 $e89 (bvnot $e21))))
(let (($e95 (select $e94 $e86)))
(let (($e96 ((_ extract 2 0) $e95)))
(let (($e97 (concat $e1 bvlambda_9_)))
(let (($e98 (concat $e97 bvlambda_10_)))
(let (($e99 (bvshl $e98  ((_ zero_extend 5) $e96))))
(let (($e100 (concat $e30 $e99)))
(let (($e101 ((_ extract 7 3) $e95)))
(let (($e102 (ite (= $e3 $e101) #b1 #b0)))
(let (($e103 (ite (= #b1 $e102) $e100 $e37)))
(let (($e104 (bvudiv $e103 $e83)))
(let (($e105 ((_ extract 13 13) $e104)))
(let (($e106 (concat bvlambda_13_ bvlambda_14_)))
(let (($e107 (concat $e106 bvlambda_15_)))
(let (($e108 (concat $e107 bvlambda_16_)))
(let (($e109 (concat $e17 bvlambda_9_)))
(let (($e110 (concat $e109 bvlambda_10_)))
(let (($e111 (bvshl $e110  ((_ zero_extend 12) $e108))))
(let (($e112 ((_ extract 12 12) $e111)))
(let (($e113 (ite (= $e112 $e105) #b1 #b0)))
(let (($e114 ((_ extract 12 0) $e111)))
(let (($e115 ((_ extract 12 0) $e104)))
(let (($e116 (ite (bvult $e115 $e114) #b1 #b0)))
(let (($e117 (bvand $e116 $e113)))
(let (($e118 (bvand (bvnot $e112) $e105)))
(let (($e119 (bvand (bvnot $e118) (bvnot $e117))))
(let (($e120 (concat bvlambda_1_ bvlambda_2_)))
(let (($e121 (concat $e120 bvlambda_3_)))
(let (($e122 (concat $e121 bvlambda_4_)))
(let (($e123 (concat $e122 bvlambda_5_)))
(let (($e124 (concat $e123 bvlambda_6_)))
(let (($e125 (concat $e124 bvlambda_7_)))
(let (($e126 (concat $e125 bvlambda_8_)))
(let (($e127 (bvadd (bvnot $e9) (bvnot $e126))))
(let (($e128 (ite (= #b1 bvlambda_1_) $e127 $e126)))
(let (($e129 (bvurem $e12 $e128)))
(let (($e130 (bvadd (bvnot $e9) (bvnot $e129))))
(let (($e131 (ite (= #b1 bvlambda_1_) $e130 $e11)))
(let (($e132 (bvadd $e126 $e130)))
(let (($e133 (ite (= $e11 $e129) #b1 #b0)))
(let (($e134 (bvand (bvnot bvlambda_1_) (bvnot $e133))))
(let (($e135 (ite (= #b1 $e134) $e132 $e11)))
(let (($e136 (bvand (bvnot $e135) (bvnot $e131))))
(let (($e137 ((_ extract 4 3) $e136)))
(let (($e138 (concat $e33 (bvnot $e137))))
(let (($e139 (ite (bvult $e115 $e138) #b1 #b0)))
(let (($e140 (bvand (bvnot $e105) (bvnot $e139))))
(let (($e141 (bvand $e140 (bvnot $e119))))
(let (($e142 (concat $e15 (bvnot $e137))))
(let (($e143 (ite (bvult $e142 $e104) #b1 #b0)))
(let (($e144 (concat (bvnot $e15) (bvnot $e137))))
(let (($e145 ((_ extract 4 4) $e136)))
(let (($e146 (ite (= #b1 $e145) $e142 $e144)))
(let (($e147 ((_ extract 13 13) $e146)))
(let (($e148 (concat $e15 bvlambda_17_)))
(let (($e149 (concat $e148 bvlambda_18_)))
(let (($e150 (bvudiv $e149 (bvnot $e14))))
(let (($e151 ((_ extract 13 13) $e150)))
(let (($e152 (ite (= $e151 $e147) #b1 #b0)))
(let (($e153 ((_ extract 12 0) $e146)))
(let (($e154 ((_ extract 12 0) $e150)))
(let (($e155 (ite (bvult $e154 $e153) #b1 #b0)))
(let (($e156 (bvand $e155 $e152)))
(let (($e157 (bvand $e151 (bvnot $e147))))
(let (($e158 (bvand (bvnot $e157) (bvnot $e156))))
(let (($e159 (concat $e1 (bvnot $e158))))
(let (($e160 (ite (bvult $e159 (bvnot $e137)) #b1 #b0)))
(let (($e161 (bvand $e160 $e143)))
(let (($e162 (bvand (bvnot $e160) (bvnot $e143))))
(let (($e163 (bvand (bvnot $e162) (bvnot $e161))))
(let (($e164 (concat $e23 $e104)))
(let (($e165 (concat (bvnot $e23) $e104)))
(let (($e166 (ite (= #b1 $e105) $e165 $e164)))
(let (($e167 (ite (bvult $e166 $e40) #b1 #b0)))
(let (($e168 (bvand $e167 $e163)))
(let (($e169 (bvand (bvnot $e167) (bvnot $e163))))
(let (($e170 (bvand (bvnot $e169) (bvnot $e168))))
(let (($e171 (bvand $e170 (bvnot $e141))))
(let (($e172 (store a77 $e1 bvlambda_6_)))
(let (($e173 (store $e172 bvlambda_13_ bvlambda_2_)))
(let (($e174 (select $e173 $e1)))
(let (($e175 (concat $e33 $e174)))
(let (($e176 (concat (bvnot $e33) $e174)))
(let (($e177 ((_ extract 1 1) $e174)))
(let (($e178 (ite (= #b1 $e177) $e176 $e175)))
(let (($e179 ((_ extract 11 4) $e178)))
(let (($e180 (ite (= $e29 $e179) #b1 #b0)))
(let (($e181 ((_ extract 12 12) $e178)))
(let (($e182 (bvand (bvnot $e181) $e180)))
(let (($e183 ((_ extract 3 3) $e178)))
(let (($e184 (ite (= bvlambda_13_ $e183) #b1 #b0)))
(let (($e185 (bvand $e184 $e182)))
(let (($e186 ((_ extract 2 2) $e178)))
(let (($e187 (ite (= bvlambda_14_ $e186) #b1 #b0)))
(let (($e188 (bvand $e187 $e185)))
(let (($e189 ((_ extract 1 1) $e178)))
(let (($e190 (ite (= bvlambda_15_ $e189) #b1 #b0)))
(let (($e191 (bvand $e190 $e188)))
(let (($e192 ((_ extract 0 0) $e178)))
(let (($e193 (ite (= bvlambda_16_ $e192) #b1 #b0)))
(let (($e194 (bvand $e193 $e191)))
(let (($e195 (concat $e24 bvlambda_13_)))
(let (($e196 (concat $e195 bvlambda_14_)))
(let (($e197 (concat $e196 bvlambda_15_)))
(let (($e198 (concat $e197 bvlambda_16_)))
(let (($e199 (ite (bvult (bvnot $e14) $e198) #b1 #b0)))
(let (($e200 (concat $e33 (bvnot $e199))))
(let (($e201 (bvurem $e200 $e38)))
(let (($e202 ((_ extract 7 0) $e201)))
(let (($e203 (select $e93 $e28)))
(let (($e204 (ite (= $e203 $e202) #b1 #b0)))
(let (($e205 ((_ extract 11 8) $e201)))
(let (($e206 (ite (= $e39 $e205) #b1 #b0)))
(let (($e207 (bvand $e206 $e204)))
(let (($e208 (bvand $e207 (bvnot $e194))))
(let (($e209 (bvand $e208 (bvnot $e171))))
(let (($e210 (ite (= bvlambda_24_ $e51) #b1 #b0)))
(let (($e211 (ite (= $e22 bvlambda_19_) #b1 #b0)))
(let (($e212 (bvand (bvnot bvlambda_20_) $e211)))
(let (($e213 (bvand (bvnot bvlambda_21_) $e212)))
(let (($e214 (ite (= $e23 bvlambda_22_) #b1 #b0)))
(let (($e215 (bvand $e214 $e213)))
(let (($e216 (ite (= $e23 bvlambda_23_) #b1 #b0)))
(let (($e217 (bvand $e216 $e215)))
(let (($e218 (bvand $e217 $e210)))
(let (($e219 (bvand (bvnot bvlambda_25_) $e218)))
(let (($e220 (bvadd (bvnot $e34) (bvnot $e114))))
(let (($e221 (ite (= #b1 $e112) $e220 $e114)))
(let (($e222 (ite (= $e8 $e221) #b1 #b0)))
(let (($e223 (ite (= #b1 $e222) (bvnot $e35) (bvnot $e36))))
(let (($e224 (concat (bvnot $e3) (bvnot $e137))))
(let (($e225 (concat $e3 (bvnot $e137))))
(let (($e226 (ite (= #b1 $e145) $e225 $e224)))
(let (($e227 (concat $e17 $e226)))
(let (($e228 (bvand $e110 $e227)))
(let (($e229 (concat (bvnot $e17) $e226)))
(let (($e230 (concat (bvnot $e17) bvlambda_9_)))
(let (($e231 (concat $e230 bvlambda_10_)))
(let (($e232 (bvand $e231 $e229)))
(let (($e233 ((_ extract 6 6) $e226)))
(let (($e234 (bvand bvlambda_9_ $e233)))
(let (($e235 (ite (= #b1 $e234) (bvnot $e232) (bvnot $e228))))
(let (($e236 (ite (bvult $e235 $e223) #b1 #b0)))
(let (($e237 (bvand $e236 $e219)))
(let (($e238 (concat (bvnot $e158) (bvnot $e158))))
(let (($e239 (select a77 (bvnot $e1))))
(let (($e240 (ite (bvult $e239 $e238) #b1 #b0)))
(let (($e241 (bvand (bvnot $e240) $e237)))
(let (($e242 ((_ extract 13 3) $e104)))
(let (($e243 ((_ extract 2 0) $e104)))
(let (($e244 (concat $e243 $e242)))
(let (($e245 ((_ extract 0 0) $e174)))
(let (($e246 (store a77 (bvnot $e1) (bvnot $e22))))
(let (($e247 (store $e246 $e1 (bvnot $e23))))
(let (($e248 (select $e247 $e245)))
(let (($e249 (concat $e15 $e248)))
(let (($e250 (ite (bvult $e249 $e244) #b1 #b0)))
(let (($e251 ((_ extract 3 2) $e136)))
(let (($e252 ((_ extract 0 0) $e111)))
(let (($e253 (store $e246 $e252 (bvnot $e251))))
(let (($e254 (select $e253 bvlambda_18_)))
(let (($e255 (concat $e33 $e254)))
(let (($e256 (bvand $e4 $e255)))
(let (($e257 (bvand (bvnot $e4) (bvnot $e255))))
(let (($e258 (bvand (bvnot $e257) (bvnot $e256))))
(let (($e259 (concat $e23 (bvnot $e258))))
(let (($e260 (ite (bvult $e259 $e13) #b1 #b0)))
(let (($e261 (bvand $e260 $e250)))
(let (($e262 (bvand (bvnot $e260) (bvnot $e250))))
(let (($e263 (bvand (bvnot $e262) (bvnot $e261))))
(let (($e264 ((_ extract 1 0) $e104)))
(let (($e265 (concat $e264 $e242)))
(let (($e266 (concat $e33 $e248)))
(let (($e267 (ite (bvult $e266 $e265) #b1 #b0)))
(let (($e268 ((_ extract 2 2) $e104)))
(let (($e269 (bvand (bvnot $e268) $e267)))
(let (($e270 (ite (= (bvnot $e269) $e263) #b1 #b0)))
(let (($e271 (concat $e37 $e174)))
(let (($e272 (concat (bvnot $e37) $e174)))
(let (($e273 (ite (= #b1 $e177) $e272 $e271)))
(let (($e274 (bvand (bvnot $e273) (bvnot $e223))))
(let (($e275 (bvmul $e32 $e114)))
(let (($e276 (concat $e18 $e275)))
(let (($e277 (bvand (bvnot $e5) $e276)))
(let (($e278 (bvand $e5 (bvnot $e276))))
(let (($e279 (bvand (bvnot $e278) (bvnot $e277))))
(let (($e280 (ite (bvult $e279 (bvnot $e274)) #b1 #b0)))
(let (($e281 (concat $e8 bvlambda_17_)))
(let (($e282 (concat $e281 bvlambda_18_)))
(let (($e283 (concat (bvnot $e8) bvlambda_17_)))
(let (($e284 (concat $e283 bvlambda_18_)))
(let (($e285 (ite (= #b1 bvlambda_17_) $e284 $e282)))
(let (($e286 (bvadd (bvnot $e9) (bvnot $e285))))
(let (($e287 ((_ extract 14 14) $e285)))
(let (($e288 (ite (= #b1 $e287) $e286 $e285)))
(let (($e289 (bvudiv $e288 $e10)))
(let (($e290 (bvadd (bvnot $e9) (bvnot $e289))))
(let (($e291 (ite (= #b1 $e287) $e289 $e290)))
(let (($e292 (ite (= $e7 $e291) #b1 #b0)))
(let (($e293 (bvand $e292 $e280)))
(let (($e294 (bvand $e293 $e270)))
(let (($e295 (bvand (bvnot $e294) $e241)))
(let (($e296 (concat $e1 $e254)))
(let (($e297 (ite (bvult (bvnot $e46) $e296) #b1 #b0)))
(let (($e298 (bvand $e297 $e294)))
(let (($e299 (bvand (bvnot $e298) (bvnot $e295))))
(let (($e300 (ite (= $e299 $e209) #b1 #b0)))
(let (($e301 (ite (= $e3 bvlambda_24_) #b1 #b0)))
(let (($e302 (ite (= $e23 bvlambda_19_) #b1 #b0)))
(let (($e303 (bvand (bvnot bvlambda_20_) $e302)))
(let (($e304 (bvand (bvnot bvlambda_21_) $e303)))
(let (($e305 (bvand $e304 $e214)))
(let (($e306 (bvand $e305 $e216)))
(let (($e307 (bvand $e306 $e301)))
(let (($e308 (bvand (bvnot bvlambda_25_) $e307)))
(let (($e309 (ite (= bvlambda_8_ bvlambda_25_) #b1 #b0)))
(let (($e310 (ite (= bvlambda_7_ bvlambda_24_) #b1 #b0)))
(let (($e311 (ite (= bvlambda_6_ bvlambda_23_) #b1 #b0)))
(let (($e312 (ite (= bvlambda_5_ bvlambda_22_) #b1 #b0)))
(let (($e313 (ite (= bvlambda_4_ bvlambda_21_) #b1 #b0)))
(let (($e314 (ite (= bvlambda_3_ bvlambda_20_) #b1 #b0)))
(let (($e315 (ite (= bvlambda_2_ bvlambda_19_) #b1 #b0)))
(let (($e316 (bvand $e315 $e314)))
(let (($e317 (bvand $e316 $e313)))
(let (($e318 (bvand $e317 $e312)))
(let (($e319 (bvand $e318 $e311)))
(let (($e320 (bvand $e319 $e310)))
(let (($e321 (bvand $e320 $e309)))
(let (($e322 (bvand (bvnot bvlambda_1_) $e321)))
(let (($e323 (concat $e24 v1)))
(let (($e324 (concat (bvnot $e24) v1)))
(let (($e325 (ite (= #b1 v1) $e324 $e323)))
(let (($e326 ((_ extract 10 10) $e325)))
(let (($e327 (ite (= $e326 $e322) #b1 #b0)))
(let (($e328 (concat $e321 $e321)))
(let (($e329 (concat $e321 (bvnot bvlambda_1_))))
(let (($e330 (bvand $e329 $e328)))
(let (($e331 (concat (bvnot bvlambda_1_) $e321)))
(let (($e332 (concat (bvnot bvlambda_1_) (bvnot bvlambda_1_))))
(let (($e333 (bvand $e332 $e331)))
(let (($e334 (bvand $e333 $e330)))
(let (($e335 (concat $e334 $e321)))
(let (($e336 (concat $e334 (bvnot bvlambda_1_))))
(let (($e337 (bvand $e336 $e335)))
(let (($e338 (concat $e337 $e321)))
(let (($e339 (concat $e337 (bvnot bvlambda_1_))))
(let (($e340 (bvand $e339 $e338)))
(let (($e341 (concat $e340 $e321)))
(let (($e342 (concat $e340 (bvnot bvlambda_1_))))
(let (($e343 (bvand $e342 $e341)))
(let (($e344 (concat $e343 $e321)))
(let (($e345 (concat $e343 (bvnot bvlambda_1_))))
(let (($e346 (bvand $e345 $e344)))
(let (($e347 (concat $e346 $e321)))
(let (($e348 (concat $e346 (bvnot bvlambda_1_))))
(let (($e349 (bvand $e348 $e347)))
(let (($e350 (concat $e349 $e321)))
(let (($e351 (concat $e349 (bvnot bvlambda_1_))))
(let (($e352 (bvand $e351 $e350)))
(let (($e353 (concat $e352 $e321)))
(let (($e354 (concat $e352 (bvnot bvlambda_1_))))
(let (($e355 (bvand $e354 $e353)))
(let (($e356 (concat $e355 $e321)))
(let (($e357 (concat $e355 (bvnot bvlambda_1_))))
(let (($e358 (bvand $e357 $e356)))
(let (($e359 ((_ extract 9 0) $e325)))
(let (($e360 (ite (bvult $e359 $e358) #b1 #b0)))
(let (($e361 (bvand $e360 $e327)))
(let (($e362 (bvand $e326 (bvnot $e322))))
(let (($e363 (bvand (bvnot $e362) (bvnot $e361))))
(let (($e364 (concat $e23 $e203)))
(let (($e365 (concat (bvnot $e23) $e203)))
(let (($e366 ((_ extract 7 7) $e203)))
(let (($e367 (ite (= #b1 $e366) $e365 $e364)))
(let (($e368 ((_ extract 8 0) $e367)))
(let (($e369 (ite (bvult $e31 $e368) #b1 #b0)))
(let (($e370 ((_ extract 9 9) $e367)))
(let (($e371 (bvand $e370 (bvnot $e369))))
(let (($e372 (concat (bvnot $e11) (bvnot $e371))))
(let (($e373 (concat $e11 (bvnot $e371))))
(let (($e374 (ite (= #b1 $e371) $e373 $e372)))
(let (($e375 ((_ extract 15 15) $e374)))
(let (($e376 ((_ extract 15 15) $e274)))
(let (($e377 (bvand $e376 $e375)))
(let (($e378 (bvand (bvnot $e376) (bvnot $e375))))
(let (($e379 (bvand (bvnot $e378) (bvnot $e377))))
(let (($e380 ((_ extract 14 0) $e374)))
(let (($e381 ((_ extract 14 0) $e274)))
(let (($e382 (ite (bvult (bvnot $e381) $e380) #b1 #b0)))
(let (($e383 (bvand $e382 $e379)))
(let (($e384 (bvand (bvnot $e378) (bvnot $e383))))
(let (($e385 (bvand $e384 (bvnot $e363))))
(let (($e386 (concat (bvnot $e11) (bvnot $e158))))
(let (($e387 (concat $e11 (bvnot $e158))))
(let (($e388 (ite (= #b1 $e158) $e387 $e386)))
(let (($e389 ((_ extract 14 0) $e388)))
(let (($e390 (ite (bvult $e47 $e389) #b1 #b0)))
(let (($e391 ((_ extract 15 15) $e388)))
(let (($e392 (bvand $e391 (bvnot $e390))))
(let (($e393 (bvand $e392 $e385)))
(let (($e394 (concat (bvnot $e199) (bvnot $e199))))
(let (($e395 ((_ extract 2 2) $e136)))
(let (($e396 (select $e246 (bvnot $e395))))
(let (($e397 (ite (bvult $e396 $e394) #b1 #b0)))
(let (($e398 (bvand (bvnot $e392) $e397)))
(let (($e399 (bvand (bvnot $e398) (bvnot $e393))))
(let (($e400 (ite (= (bvnot $e23) $e396) #b1 #b0)))
(let (($e401 (ite (= $e400 $e399) #b1 #b0)))
(let (($e402 (concat $e8 $e321)))
(let (($e403 (concat $e8 (bvnot bvlambda_1_))))
(let (($e404 (bvand $e403 $e402)))
(let (($e405 (concat (bvnot $e8) $e321)))
(let (($e406 (concat (bvnot $e8) (bvnot bvlambda_1_))))
(let (($e407 (bvand $e406 $e405)))
(let (($e408 (ite (= #b1 $e322) $e407 $e404)))
(let (($e409 ((_ extract 13 13) $e408)))
(let (($e410 ((_ extract 13 13) $e85)))
(let (($e411 (ite (= $e410 $e409) #b1 #b0)))
(let (($e412 ((_ extract 12 0) $e85)))
(let (($e413 ((_ extract 12 0) $e408)))
(let (($e414 (ite (bvult $e413 $e412) #b1 #b0)))
(let (($e415 (bvand $e414 $e411)))
(let (($e416 (bvand (bvnot $e410) $e409)))
(let (($e417 (bvand (bvnot $e416) (bvnot $e415))))
(let (($e418 ((_ extract 3 3) $e136)))
(let (($e419 (ite (= bvlambda_18_ (bvnot $e418)) #b1 #b0)))
(let (($e420 (ite (= bvlambda_17_ (bvnot $e145)) #b1 #b0)))
(let (($e421 (bvand $e420 $e419)))
(let (($e422 (bvand $e421 (bvnot $e417))))
(let (($e423 ((_ extract 0 0) $e239)))
(let (($e424 (ite (= $e423 (bvnot $e199)) #b1 #b0)))
(let (($e425 ((_ extract 1 1) $e239)))
(let (($e426 (ite (= $e425 (bvnot $e199)) #b1 #b0)))
(let (($e427 (bvand $e426 $e424)))
(let (($e428 (concat $e18 bvlambda_17_)))
(let (($e429 (concat $e428 bvlambda_18_)))
(let (($e430 (concat (bvnot $e18) bvlambda_17_)))
(let (($e431 (concat $e430 bvlambda_18_)))
(let (($e432 (ite (= #b1 bvlambda_17_) $e431 $e429)))
(let (($e433 ((_ extract 4 4) $e432)))
(let (($e434 (bvand (bvnot $e433) (bvnot $e427))))
(let (($e435 (bvand $e433 $e427)))
(let (($e436 (bvand (bvnot $e435) (bvnot $e434))))
(let (($e437 (bvand $e436 (bvnot $e422))))
(let (($e438 ((_ extract 7 7) $e85)))
(let (($e439 (store a77 $e1 (bvnot $e23))))
(let (($e440 (select $e439 $e438)))
(let (($e441 ((_ extract 1 1) $e440)))
(let (($e442 (ite (= v1 $e441) #b1 #b0)))
(let (($e443 ((_ extract 0 0) $e440)))
(let (($e444 (bvand (bvnot v1) $e443)))
(let (($e445 (bvand $e444 $e442)))
(let (($e446 (bvand v1 (bvnot $e441))))
(let (($e447 (bvand (bvnot $e446) (bvnot $e445))))
(let (($e448 (ite (= $e447 $e437) #b1 #b0)))
(let (($e449 (concat $e37 $e321)))
(let (($e450 (concat $e37 (bvnot bvlambda_1_))))
(let (($e451 (bvand $e450 $e449)))
(let (($e452 (bvand (bvnot $e16) (bvnot $e126))))
(let (($e453 (ite (bvult $e452 $e451) #b1 #b0)))
(let (($e454 ((_ extract 14 14) $e136)))
(let (($e455 (ite (= $e454 $e453) #b1 #b0)))
(let (($e456 (bvand $e7 $e285)))
(let (($e457 (bvand (bvnot $e7) (bvnot $e285))))
(let (($e458 (bvand (bvnot $e457) (bvnot $e456))))
(let (($e459 ((_ extract 13 0) $e458)))
(let (($e460 (ite (bvult (bvnot $e459) $e48) #b1 #b0)))
(let (($e461 ((_ extract 14 14) $e458)))
(let (($e462 (bvand $e461 (bvnot $e460))))
(let (($e463 (ite (= $e462 $e455) #b1 #b0)))
(let (($e464 ((_ extract 0 0) $e458)))
(let (($e465 (ite (bvult $e452 $e16) #b1 #b0)))
(let (($e466 (ite (= $e465 (bvnot $e464)) #b1 #b0)))
(let (($e467 ((_ extract 14 1) $e458)))
(let (($e468 (ite (= $e37 (bvnot $e467)) #b1 #b0)))
(let (($e469 (bvand $e468 $e466)))
(let (($e470 (ite (= $e469 $e463) #b1 #b0)))
(let (($e471 (ite (= $e470 $e448) #b1 #b0)))
(let (($e472 (ite (= $e291 $e452) #b1 #b0)))
(let (($e473 (ite (= $e472 (bvnot $e471)) #b1 #b0)))
(let (($e474 (bvand $e199 $e322)))
(let (($e475 (bvand $e145 (bvnot $e474))))
(let (($e476 (concat $e25 $e226)))
(let (($e477 (concat $e25 bvlambda_9_)))
(let (($e478 (concat $e477 bvlambda_10_)))
(let (($e479 (bvand $e478 $e476)))
(let (($e480 (concat (bvnot $e25) $e226)))
(let (($e481 (concat (bvnot $e25) bvlambda_9_)))
(let (($e482 (concat $e481 bvlambda_10_)))
(let (($e483 (bvand $e482 $e480)))
(let (($e484 (ite (= #b1 $e234) (bvnot $e483) (bvnot $e479))))
(let (($e485 ((_ extract 13 13) $e484)))
(let (($e486 (ite (= $e410 $e485) #b1 #b0)))
(let (($e487 ((_ extract 12 0) $e484)))
(let (($e488 (ite (bvult $e412 $e487) #b1 #b0)))
(let (($e489 (bvand $e488 $e486)))
(let (($e490 (bvand $e410 (bvnot $e485))))
(let (($e491 (bvand (bvnot $e490) (bvnot $e489))))
(let (($e492 (bvand (bvnot $e491) (bvnot $e475))))
(let (($e493 ((_ extract 0 0) $e291)))
(let (($e494 (ite (= bvlambda_25_ $e493) #b1 #b0)))
(let (($e495 ((_ extract 5 1) $e291)))
(let (($e496 (ite (= bvlambda_24_ $e495) #b1 #b0)))
(let (($e497 ((_ extract 7 6) $e291)))
(let (($e498 (ite (= bvlambda_23_ $e497) #b1 #b0)))
(let (($e499 ((_ extract 9 8) $e291)))
(let (($e500 (ite (= bvlambda_22_ $e499) #b1 #b0)))
(let (($e501 ((_ extract 10 10) $e291)))
(let (($e502 (ite (= bvlambda_21_ $e501) #b1 #b0)))
(let (($e503 ((_ extract 11 11) $e291)))
(let (($e504 (ite (= bvlambda_20_ $e503) #b1 #b0)))
(let (($e505 ((_ extract 13 12) $e291)))
(let (($e506 (ite (= bvlambda_19_ $e505) #b1 #b0)))
(let (($e507 (bvand $e506 $e504)))
(let (($e508 (bvand $e507 $e502)))
(let (($e509 (bvand $e508 $e500)))
(let (($e510 (bvand $e509 $e498)))
(let (($e511 (bvand $e510 $e496)))
(let (($e512 (bvand $e511 $e494)))
(let (($e513 ((_ extract 14 14) $e291)))
(let (($e514 (bvand (bvnot $e513) $e512)))
(let (($e515 (concat $e1 $e514)))
(let (($e516 (ite (bvult $e174 $e515) #b1 #b0)))
(let (($e517 (bvand $e491 (bvnot $e516))))
(let (($e518 (bvand (bvnot $e517) (bvnot $e492))))
(let (($e519 (bvand $e518 (bvnot $e473))))
(let (($e520 (ite (= (bvnot $e519) $e401) #b1 #b0)))
(let (($e521 (bvand (bvnot $e465) $e514)))
(let (($e522 (concat bvlambda_2_ bvlambda_3_)))
(let (($e523 (concat $e522 bvlambda_4_)))
(let (($e524 (concat $e523 bvlambda_5_)))
(let (($e525 (concat $e524 bvlambda_6_)))
(let (($e526 (concat $e525 bvlambda_7_)))
(let (($e527 (concat $e526 bvlambda_8_)))
(let (($e528 (bvand (bvnot $e45) (bvnot $e527))))
(let (($e529 ((_ extract 13 0) $e85)))
(let (($e530 (ite (= $e529 $e528) #b1 #b0)))
(let (($e531 (ite (= $e410 (bvnot bvlambda_1_)) #b1 #b0)))
(let (($e532 (bvand $e531 $e530)))
(let (($e533 (bvand (bvnot $e371) (bvnot $e532))))
(let (($e534 (ite (= #b1 $e102) $e99 $e29)))
(let (($e535 (ite (bvult $e95 $e534) #b1 #b0)))
(let (($e536 (bvand $e535 $e533)))
(let (($e537 (bvand (bvnot $e536) (bvnot $e521))))
(let (($e538 (bvand (bvnot $e22) $e440)))
(let (($e539 (concat $e1 $e321)))
(let (($e540 (concat $e1 (bvnot bvlambda_1_))))
(let (($e541 (bvand $e540 $e539)))
(let (($e542 (ite (bvult $e541 (bvnot $e538)) #b1 #b0)))
(let (($e543 (ite (= $e542 $e537) #b1 #b0)))
(let (($e544 (bvand (bvnot $e543) $e520)))
(let (($e545 (ite (= #b1 $e222) (bvnot $e42) (bvnot $e9))))
(let (($e546 (ite (bvult (bvnot $e50) $e545) #b1 #b0)))
(let (($e547 (bvand $e546 $e544)))
(let (($e548 (ite (= $e37 $e459) #b1 #b0)))
(let (($e549 (bvand (bvnot $e461) (bvnot $e548))))
(let (($e550 (select a77 bvlambda_15_)))
(let (($e551 (concat $e37 $e550)))
(let (($e552 (concat (bvnot $e37) $e550)))
(let (($e553 ((_ extract 1 1) $e550)))
(let (($e554 (ite (= #b1 $e553) $e552 $e551)))
(let (($e555 ((_ extract 14 0) $e554)))
(let (($e556 (ite (bvult $e44 $e555) #b1 #b0)))
(let (($e557 ((_ extract 15 15) $e554)))
(let (($e558 (bvand $e557 (bvnot $e556))))
(let (($e559 (ite (= $e558 $e549) #b1 #b0)))
(let (($e560 (ite (bvult $e13 (bvnot $e458)) #b1 #b0)))
(let (($e561 (bvand (bvnot $e560) (bvnot $e559))))
(let (($e562 (bvand (bvnot $e561) (bvnot $e547))))
(let (($e563 (bvand $e561 $e547)))
(let (($e564 (bvand (bvnot $e563) (bvnot $e562))))
(let (($e565 ((_ extract 3 3) $e104)))
(let (($e566 (ite (= bvlambda_8_ $e565) #b1 #b0)))
(let (($e567 ((_ extract 8 4) $e104)))
(let (($e568 (ite (= bvlambda_7_ $e567) #b1 #b0)))
(let (($e569 ((_ extract 10 9) $e104)))
(let (($e570 (ite (= bvlambda_6_ $e569) #b1 #b0)))
(let (($e571 ((_ extract 12 11) $e104)))
(let (($e572 (ite (= bvlambda_5_ $e571) #b1 #b0)))
(let (($e573 (ite (= bvlambda_4_ $e105) #b1 #b0)))
(let (($e574 (bvand $e573 $e572)))
(let (($e575 (bvand $e574 $e570)))
(let (($e576 (bvand $e575 $e568)))
(let (($e577 (bvand $e576 $e566)))
(let (($e578 ((_ extract 0 0) $e104)))
(let (($e579 (ite (= bvlambda_3_ $e578) #b1 #b0)))
(let (($e580 ((_ extract 2 1) $e104)))
(let (($e581 (ite (= bvlambda_2_ $e580) #b1 #b0)))
(let (($e582 (bvand $e581 $e579)))
(let (($e583 (bvand (bvnot bvlambda_1_) $e582)))
(let (($e584 (bvand $e583 $e577)))
(let (($e585 (concat $e17 bvlambda_13_)))
(let (($e586 (concat $e585 bvlambda_14_)))
(let (($e587 (concat $e586 bvlambda_15_)))
(let (($e588 (concat $e587 bvlambda_16_)))
(let (($e589 (ite (bvult (bvnot $e34) $e588) #b1 #b0)))
(let (($e590 (bvand $e589 (bvnot $e584))))
(let (($e591 (concat $e29 $e550)))
(let (($e592 (store $e94 $e26 $e27)))
(let (($e593 (select $e592 $e591)))
(let (($e594 ((_ extract 7 0) $e85)))
(let (($e595 (ite (= $e594 $e593) #b1 #b0)))
(let (($e596 ((_ extract 13 8) $e85)))
(let (($e597 (ite (= $e30 $e596) #b1 #b0)))
(let (($e598 (bvand $e597 $e595)))
(let (($e599 (bvand $e598 (bvnot $e589))))
(let (($e600 (bvand (bvnot $e599) (bvnot $e590))))
(let (($e601 (ite (bvult (bvnot $e41) $e545) #b1 #b0)))
(let (($e602 ((_ extract 11 0) $e258)))
(let (($e603 (ite (bvult (bvnot $e602) $e6) #b1 #b0)))
(let (($e604 ((_ extract 12 12) $e258)))
(let (($e605 (bvand (bvnot $e604) $e603)))
(let (($e606 (concat $e23 $e529)))
(let (($e607 (ite (bvult $e606 (bvnot $e5)) #b1 #b0)))
(let (($e608 (bvand $e607 (bvnot $e605))))
(let (($e609 (bvand (bvnot $e608) (bvnot $e601))))
(let (($e610 (concat $e33 $e396)))
(let (($e611 (concat (bvnot $e33) $e396)))
(let (($e612 ((_ extract 1 1) $e396)))
(let (($e613 (ite (= #b1 $e612) $e611 $e610)))
(let (($e614 (concat $e18 $e613)))
(let (($e615 (bvlshr $e614  ((_ zero_extend 12) $e108))))
(let (($e616 ((_ extract 12 0) $e615)))
(let (($e617 ((_ extract 12 12) $e615)))
(let (($e618 (concat $e617 $e616)))
(let (($e619 (ite (bvult $e618 $e2) #b1 #b0)))
(let (($e620 (bvand (bvnot $e619) $e608)))
(let (($e621 (bvand (bvnot $e620) (bvnot $e609))))
(let (($e622 (bvand $e621 $e600)))
(let (($e623 (concat $e1 $e104)))
(let (($e624 (ite (bvult (bvnot $e381) $e623) #b1 #b0)))
(let (($e625 (bvand $e376 (bvnot $e624))))
(let (($e626 (ite (bvult $e478 $e529) #b1 #b0)))
(let (($e627 (bvand (bvnot $e222) (bvnot $e626))))
(let (($e628 (concat $e29 $e95)))
(let (($e629 (concat (bvnot $e29) $e95)))
(let (($e630 ((_ extract 7 7) $e95)))
(let (($e631 (ite (= #b1 $e630) $e629 $e628)))
(let (($e632 (ite (= (bvnot $e274) $e631) #b1 #b0)))
(let (($e633 (bvand $e626 (bvnot $e632))))
(let (($e634 (bvand (bvnot $e633) (bvnot $e627))))
(let (($e635 (bvand $e634 (bvnot $e625))))
(let (($e636 (concat $e18 $e248)))
(let (($e637 (concat (bvnot $e18) $e248)))
(let (($e638 ((_ extract 1 1) $e248)))
(let (($e639 (ite (= #b1 $e638) $e637 $e636)))
(let (($e640 ((_ extract 4 4) $e639)))
(let (($e641 (concat (bvnot $e39) (bvnot $e640))))
(let (($e642 (concat $e39 (bvnot $e640))))
(let (($e643 (ite (= #b1 $e640) $e642 $e641)))
(let (($e644 (ite (= $e3 $e643) #b1 #b0)))
(let (($e645 (bvand (bvnot $e634) $e644)))
(let (($e646 (bvand (bvnot $e645) (bvnot $e635))))
(let (($e647 (bvand (bvnot $e646) $e622)))
(let (($e648 (ite (= $e30 bvlambda_10_) #b1 #b0)))
(let (($e649 (bvand (bvnot bvlambda_9_) $e648)))
(let (($e650 (bvand $e649 (bvnot $e647))))
(let (($e651 (concat $e8 $e550)))
(let (($e652 (concat (bvnot $e8) $e550)))
(let (($e653 (ite (= #b1 $e553) $e652 $e651)))
(let (($e654 (ite (bvult (bvnot $e136) $e653) #b1 #b0)))
(let (($e655 (bvand (bvnot $e654) $e650)))
(let (($e656 (ite (= (bvnot $e655) $e564) #b1 #b0)))
(let (($e657 (bvand (bvnot bvlambda_17_) $e514)))
(let (($e658 (concat $e37 $e514)))
(let (($e659 (concat (bvnot $e37) $e514)))
(let (($e660 (ite (= #b1 $e514) $e659 $e658)))
(let (($e661 ((_ extract 14 14) $e660)))
(let (($e662 (bvand $e461 $e661)))
(let (($e663 (bvand (bvnot $e461) (bvnot $e661))))
(let (($e664 (bvand (bvnot $e663) (bvnot $e662))))
(let (($e665 ((_ extract 13 0) $e660)))
(let (($e666 (ite (bvult (bvnot $e459) $e665) #b1 #b0)))
(let (($e667 (bvand $e666 $e664)))
(let (($e668 (bvand (bvnot $e663) (bvnot $e667))))
(let (($e669 (concat $e15 $e239)))
(let (($e670 (concat (bvnot $e15) $e239)))
(let (($e671 (ite (= #b1 $e425) $e670 $e669)))
(let (($e672 (ite (bvult $e671 $e2) #b1 #b0)))
(let (($e673 (bvand $e672 (bvnot $e668))))
(let (($e674 (bvand (bvnot bvlambda_1_) (bvnot $e465))))
(let (($e675 (bvand (bvnot $e672) $e674)))
(let (($e676 (bvand (bvnot $e675) (bvnot $e673))))
(let (($e677 (ite (bvult $e13 $e259) #b1 #b0)))
(let (($e678 (ite (= (bvnot $e677) $e676) #b1 #b0)))
(let (($e679 (ite (= $e443 $e640) #b1 #b0)))
(let (($e680 (bvand (bvnot $e640) $e679)))
(let (($e681 (bvand $e680 (bvnot $e678))))
(let (($e682 ((_ extract 0 0) $e550)))
(let (($e683 (bvand (bvnot $e553) $e682)))
(let (($e684 (ite (= $e683 $e681) #b1 #b0)))
(let (($e685 (ite (= #b1 $e222) (bvnot $e15) (bvnot $e43))))
(let (($e686 (concat $e29 bvlambda_13_)))
(let (($e687 (concat $e686 bvlambda_14_)))
(let (($e688 (concat $e687 bvlambda_15_)))
(let (($e689 (concat $e688 bvlambda_16_)))
(let (($e690 (ite (bvult $e689 $e685) #b1 #b0)))
(let (($e691 (bvand (bvnot $e222) $e690)))
(let (($e692 (ite (bvult $e529 (bvnot $e49)) #b1 #b0)))
(let (($e693 (ite (= $e692 $e691) #b1 #b0)))
(let (($e694 (concat $e24 bvlambda_17_)))
(let (($e695 (concat $e694 bvlambda_18_)))
(let (($e696 (concat (bvnot $e24) bvlambda_17_)))
(let (($e697 (concat $e696 bvlambda_18_)))
(let (($e698 (ite (= #b1 bvlambda_17_) $e697 $e695)))
(let (($e699 (ite (= $e698 $e201) #b1 #b0)))
(let (($e700 (bvand (bvnot $e699) (bvnot $e693))))
(let (($e701 (bvand (bvnot $e371) (bvnot $e700))))
(let (($e702 (bvand $e371 $e700)))
(let (($e703 (bvand (bvnot $e702) (bvnot $e701))))
(let (($e704 (ite (= $e136 $e458) #b1 #b0)))
(let (($e705 (ite (= (bvnot $e538) $e248) #b1 #b0)))
(let (($e706 (bvand $e705 (bvnot $e704))))
(let (($e707 (ite (= (bvnot $e706) $e703) #b1 #b0)))
(let (($e708 (ite (= $e8 $e114) #b1 #b0)))
(let (($e709 (ite (= (bvnot $e8) $e114) #b1 #b0)))
(let (($e710 (ite (= $e3 bvlambda_7_) #b1 #b0)))
(let (($e711 (ite (= $e23 bvlambda_6_) #b1 #b0)))
(let (($e712 (ite (= $e23 bvlambda_5_) #b1 #b0)))
(let (($e713 (ite (= $e23 bvlambda_2_) #b1 #b0)))
(let (($e714 (bvand (bvnot bvlambda_1_) $e713)))
(let (($e715 (bvand (bvnot bvlambda_3_) $e714)))
(let (($e716 (bvand (bvnot bvlambda_4_) $e715)))
(let (($e717 (bvand $e716 $e712)))
(let (($e718 (bvand $e717 $e711)))
(let (($e719 (bvand $e718 $e710)))
(let (($e720 (bvand (bvnot bvlambda_8_) $e719)))
(let (($e721 (ite (= (bvnot $e3) bvlambda_7_) #b1 #b0)))
(let (($e722 (ite (= (bvnot $e23) bvlambda_6_) #b1 #b0)))
(let (($e723 (ite (= (bvnot $e23) bvlambda_5_) #b1 #b0)))
(let (($e724 (ite (= (bvnot $e23) bvlambda_2_) #b1 #b0)))
(let (($e725 (bvand bvlambda_1_ $e724)))
(let (($e726 (bvand bvlambda_3_ $e725)))
(let (($e727 (bvand bvlambda_4_ $e726)))
(let (($e728 (bvand $e727 $e723)))
(let (($e729 (bvand $e728 $e722)))
(let (($e730 (bvand $e729 $e721)))
(let (($e731 (bvand bvlambda_8_ $e730)))
(let (($e732 (ite (= $e23 $e239) #b1 #b0)))
(let (($e733 (ite (= (bvnot $e23) $e239) #b1 #b0)))
(let (($e734 (bvand (bvnot $e733) (bvnot $e732))))
(let (($e735 (bvand $e734 (bvnot $e731))))
(let (($e736 (bvand $e735 (bvnot $e720))))
(let (($e737 (bvand $e736 (bvnot $e709))))
(let (($e738 (bvand $e737 (bvnot $e708))))
(let (($e739 (bvand $e738 $e707)))
(let (($e740 (bvand $e739 (bvnot $e684))))
(let (($e741 (bvand $e740 (bvnot $e657))))
(let (($e742 (bvand $e741 $e656)))
(let (($e743 (bvand $e742 (bvnot $e308))))
(let (($e744 (bvand $e743 $e300)))
 (not (= $e744 #b0)))))))))))))))))))))))))))))))))))))))))))))))))))))))))))))))))))))))))))))))))))))))))))))))))))))))))))))))))))))))))))))))))))))))))))))))))))))))))))))))))))))))))))))))))))))))))))))))))))))))))))))))))))))))))))))))))))))))))))))))))))))))))))))))))))))))))))))))))))))))))))))))))))))))))))))))))))))))))))))))))))))))))))))))))))))))))))))))))))))))))))))))))))))))))))))))))))))))))))))))))))))))))))))))))))))))))))))))))))))))))))))))))))))))))))))))))))))))))))))))))))))))))))))))))))))))))))))))))))))))))))))))))))))))))))))))))))))))))))))))))))))))))))))))))))))))))))))))))))))))))))))))))))))))))))))))))))))))))))))))))))))))))))))))))))))))))))))))))))))))))))))))))))))))))))))))))))))))))))))))))
(check-sat)
(exit)
